c 6 __LINUXTHREADS_OLD__
c 7 __UCLIBC_HAS_CTYPE_TABLES__
c 1 __UCLIBC_HAS_RPC__
c 2 __UCLIBC_HAS_THREADS_NATIVE__
c 3 __UCLIBC_HAS_XLOCALE__
c 5 __UCLIBC_HAS_LOCALE__
c 8 __LINUXTHREADS_NEW__
c 4 __UCLIBC_HAS_THREADS__
p cnf 8 5
-3 -4 -1 -2 5 1
2 -6 -3 -4 -1 5 1
2 -7 6 -3 -4 -1 5 8 1
-7 -3 4 -1 5 1
2 6 -3 -4 -1 5 -8 1
